32      4       
10      10      10      10      
0       0       0       0       0       5       2       7       11      30      31      
3       0       1       1       1       3       3       10      19      
2       1       0       6       8       2       4       29      
6       4       3       3       0       3       5       14      28      
10      0       2       4       2       3       6       9       18      
5       0       4       5       4       3       8       23      27      
10      0       7       4       4       3       8       18      23      
7       3       0       5       4       5       12      21      24      25      26      
9       5       7       4       0       5       15      21      22      23      25      
10      4       3       3       0       5       15      21      22      23      24      
9       2       4       7       0       5       16      21      22      23      27      
4       4       0       1       5       1       13      
2       4       3       0       5       2       15      22      
10      6       4       2       0       2       18      24      
5       4       0       2       5       1       16      
2       3       6       3       0       1       17      
6       0       4       4       5       1       20      
10      0       4       7       3       1       21      
3       5       3       0       4       1       21      
3       4       6       2       0       1       32      
4       8       5       0       4       1       32      
3       6       4       8       0       1       32      
10      5       4       0       3       1       32      
2       1       2       0       4       1       32      
10      5       2       0       3       1       32      
4       3       5       4       0       1       32      
10      2       0       7       4       1       32      
10      6       5       4       0       1       32      
9       0       5       3       4       1       32      
5       0       5       3       3       1       32      
6       3       2       0       5       1       32      
0       0       0       0       0       0       
